95 95
93 16
34 25
50 4
7 37
54 41
46 1
2 19
38 42
16 45
76 5
94 29
43 5
58 43
70 28
39 17
24 30
11 3
26 27
75 12
88 13
65 16
48 32
28 36
89 20
56 21
91 37
6 43
59 23
79 35
61 47
55 39
10 7
18 13
17 6
87 10
1 33
77 38
64 2
63 45
5 4
15 14
81 15
20 12
90 34
42 2
8 46
30 33
60 32
29 17
73 36
52 40
80 9
12 34
32 28
19 1
13 38
67 48
66 15
21 10
25 26
47 31
72 42
62 22
49 3
33 29
84 18
23 30
35 23
40 44
95 26
92 8
68 44
51 14
14 24
85 24
31 25
22 27
74 22
71 47
36 46
86 19
27 40
44 6
37 39
82 41
57 20
69 7
53 35
4 18
41 9
9 31
45 8
3 21
78 11
83 11
